solution status: optimal solution found
objective value:                         -10962.87656
t_x18                                               1 	(obj:-213.053)
t_x36                                               1 	(obj:-535.3586)
t_x95                                               1 	(obj:-512.35586)
t_x119                                              1 	(obj:-271.411)
t_x148                                              1 	(obj:-919.4905)
t_x167                                              1 	(obj:-152.404)
t_x184                                              1 	(obj:-582.784)
t_x202                                              1 	(obj:-1054.32)
t_x214                                              1 	(obj:-604.374)
t_x272                                              1 	(obj:-239.034)
t_x303                                              1 	(obj:-55.8187)
t_x307                                              1 	(obj:-585.5128)
t_x334                                              1 	(obj:-219.474)
t_x383                                              1 	(obj:-458.685)
t_x449                                              1 	(obj:-311.48)
t_x452                                              1 	(obj:-290.2791)
t_x464                                              1 	(obj:-678.017)
t_x467                                              1 	(obj:-46.9953)
t_x472                                              1 	(obj:-289.7946)
t_x488                                              1 	(obj:-172.37)
t_x511                                              1 	(obj:-243.065)
t_x537                                              1 	(obj:-287.764)
t_x694                                              1 	(obj:-264.997)
t_x720                                              1 	(obj:-719.526)
t_x834                                              1 	(obj:-978.0041)
t_x869                                              1 	(obj:-170.469)
t_x960                                              1 	(obj:-106.04)
